20
9	131	39	59	31
1	55	126	86	69
20	82	49	95	80
13	241	121	95	23
3	170	221	49	87
19	87	164	87	67
21	26	308	33	69
20	204	338	68	33
28	166	222	9	88
6	261	69	20	24
8	169	258	42	100
29	126	142	53	64
14	266	11	48	7
14	233	259	51	45
6	209	166	44	10
6	69	183	26	84
17	169	195	99	49
13	82	263	69	64
17	21	324	84	63
14	25	308	92	89
